p tw 44 94
5 8
5 16
5 10
10 43
10 18
14 18
1 15
1 18
1 4
1 11
1 41
6 43
6 11
6 8
6 9
9 18
9 17
2 5
2 20
12 20
18 42
18 19
8 15
4 9
4 13
4 7
4 18
15 19
24 25
24 39
24 28
37 39
37 43
37 40
25 32
25 39
20 41
29 37
21 41
21 40
21 36
21 25
21 35
33 34
28 34
13 17
13 44
13 18
41 44
41 43
32 38
34 35
34 40
22 31
22 25
22 37
22 36
27 37
27 29
27 44
27 36
7 13
7 10
7 17
3 11
3 8
3 17
3 20
3 42
3 15
35 38
16 17
16 19
31 40
31 42
31 37
11 20
11 44
11 19
40 42
26 27
26 40
26 36
26 38
26 43
23 27
23 32
23 40
23 31
36 44
36 40
30 41
30 31
30 32
